p cnf 30 513
-1 -10 0
-1 -13 0
-1 -16 0
-1 -19 0
-1 -2 0
-1 -22 0
-1 -25 0
-1 -28 0
-1 -3 0
-1 -4 0
-1 -5 0
-1 -6 0
-1 -7 0
-10 -1 0
-10 -11 0
-10 -12 0
-10 -13 0
-10 -16 0
-10 -18 0
-10 -19 0
-10 -22 0
-10 -24 0
-10 -25 0
-10 -28 0
-10 -30 0
-10 -4 0
-10 -6 0
-10 -7 0
-10 -8 0
-10 -9 0
-11 -10 0
-11 -12 0
-11 -14 0
-11 -17 0
-11 -18 0
-11 -2 0
-11 -20 0
-11 -23 0
-11 -24 0
-11 -26 0
-11 -29 0
-11 -30 0
-11 -5 0
-11 -6 0
-11 -7 0
-11 -8 0
-11 -9 0
-12 -10 0
-12 -11 0
-12 -15 0
-12 -16 0
-12 -17 0
-12 -18 0
-12 -21 0
-12 -22 0
-12 -23 0
-12 -24 0
-12 -27 0
-12 -28 0
-12 -29 0
-12 -3 0
-12 -30 0
-12 -4 0
-12 -5 0
-12 -6 0
-12 -7 0
-12 -8 0
-12 -9 0
-13 -1 0
-13 -10 0
-13 -14 0
-13 -15 0
-13 -16 0
-13 -17 0
-13 -18 0
-13 -19 0
-13 -22 0
-13 -25 0
-13 -28 0
-13 -4 0
-13 -7 0
-14 -11 0
-14 -13 0
-14 -15 0
-14 -16 0
-14 -17 0
-14 -18 0
-14 -2 0
-14 -20 0
-14 -21 0
-14 -23 0
-14 -26 0
-14 -27 0
-14 -29 0
-14 -3 0
-14 -5 0
-14 -8 0
-14 -9 0
-15 -12 0
-15 -13 0
-15 -14 0
-15 -16 0
-15 -17 0
-15 -18 0
-15 -2 0
-15 -20 0
-15 -21 0
-15 -24 0
-15 -26 0
-15 -27 0
-15 -3 0
-15 -30 0
-15 -6 0
-15 -8 0
-15 -9 0
-16 -1 0
-16 -10 0
-16 -12 0
-16 -13 0
-16 -14 0
-16 -15 0
-16 -17 0
-16 -18 0
-16 -19 0
-16 -22 0
-16 -24 0
-16 -25 0
-16 -28 0
-16 -30 0
-16 -4 0
-16 -6 0
-16 -7 0
-17 -11 0
-17 -12 0
-17 -13 0
-17 -14 0
-17 -15 0
-17 -16 0
-17 -18 0
-17 -2 0
-17 -20 0
-17 -23 0
-17 -24 0
-17 -26 0
-17 -29 0
-17 -30 0
-17 -5 0
-17 -6 0
-17 -8 0
-18 -10 0
-18 -11 0
-18 -12 0
-18 -13 0
-18 -14 0
-18 -15 0
-18 -16 0
-18 -17 0
-18 -21 0
-18 -22 0
-18 -23 0
-18 -24 0
-18 -27 0
-18 -28 0
-18 -29 0
-18 -3 0
-18 -30 0
-18 -4 0
-18 -5 0
-18 -6 0
-18 -9 0
-19 -1 0
-19 -10 0
-19 -13 0
-19 -16 0
-19 -20 0
-19 -21 0
-19 -22 0
-19 -23 0
-19 -24 0
-19 -25 0
-19 -28 0
-19 -4 0
-19 -7 0
-2 -1 0
-2 -11 0
-2 -14 0
-2 -15 0
-2 -17 0
-2 -20 0
-2 -21 0
-2 -23 0
-2 -26 0
-2 -27 0
-2 -29 0
-2 -3 0
-2 -4 0
-2 -5 0
-2 -6 0
-2 -8 0
-2 -9 0
-20 -11 0
-20 -14 0
-20 -15 0
-20 -17 0
-20 -19 0
-20 -2 0
-20 -21 0
-20 -22 0
-20 -23 0
-20 -24 0
-20 -26 0
-20 -27 0
-20 -29 0
-20 -3 0
-20 -5 0
-20 -8 0
-20 -9 0
-21 -12 0
-21 -14 0
-21 -15 0
-21 -18 0
-21 -19 0
-21 -2 0
-21 -20 0
-21 -22 0
-21 -23 0
-21 -24 0
-21 -26 0
-21 -27 0
-21 -3 0
-21 -30 0
-21 -6 0
-21 -8 0
-21 -9 0
-22 -1 0
-22 -10 0
-22 -12 0
-22 -13 0
-22 -16 0
-22 -18 0
-22 -19 0
-22 -20 0
-22 -21 0
-22 -23 0
-22 -24 0
-22 -25 0
-22 -28 0
-22 -30 0
-22 -4 0
-22 -6 0
-22 -7 0
-23 -11 0
-23 -12 0
-23 -14 0
-23 -17 0
-23 -18 0
-23 -19 0
-23 -2 0
-23 -20 0
-23 -21 0
-23 -22 0
-23 -24 0
-23 -26 0
-23 -29 0
-23 -30 0
-23 -5 0
-23 -6 0
-23 -8 0
-24 -10 0
-24 -11 0
-24 -12 0
-24 -15 0
-24 -16 0
-24 -17 0
-24 -18 0
-24 -19 0
-24 -20 0
-24 -21 0
-24 -22 0
-24 -23 0
-24 -27 0
-24 -28 0
-24 -29 0
-24 -3 0
-24 -30 0
-24 -4 0
-24 -5 0
-24 -6 0
-24 -9 0
-25 -1 0
-25 -10 0
-25 -13 0
-25 -16 0
-25 -19 0
-25 -22 0
-25 -26 0
-25 -27 0
-25 -28 0
-25 -29 0
-25 -30 0
-25 -4 0
-25 -7 0
-26 -11 0
-26 -14 0
-26 -15 0
-26 -17 0
-26 -2 0
-26 -20 0
-26 -21 0
-26 -23 0
-26 -25 0
-26 -27 0
-26 -28 0
-26 -29 0
-26 -3 0
-26 -30 0
-26 -5 0
-26 -8 0
-26 -9 0
-27 -12 0
-27 -14 0
-27 -15 0
-27 -18 0
-27 -2 0
-27 -20 0
-27 -21 0
-27 -24 0
-27 -25 0
-27 -26 0
-27 -28 0
-27 -29 0
-27 -3 0
-27 -30 0
-27 -6 0
-27 -8 0
-27 -9 0
-28 -1 0
-28 -10 0
-28 -12 0
-28 -13 0
-28 -16 0
-28 -18 0
-28 -19 0
-28 -22 0
-28 -24 0
-28 -25 0
-28 -26 0
-28 -27 0
-28 -29 0
-28 -30 0
-28 -4 0
-28 -6 0
-28 -7 0
-29 -11 0
-29 -12 0
-29 -14 0
-29 -17 0
-29 -18 0
-29 -2 0
-29 -20 0
-29 -23 0
-29 -24 0
-29 -25 0
-29 -26 0
-29 -27 0
-29 -28 0
-29 -30 0
-29 -5 0
-29 -6 0
-29 -8 0
-3 -1 0
-3 -12 0
-3 -14 0
-3 -15 0
-3 -18 0
-3 -2 0
-3 -20 0
-3 -21 0
-3 -24 0
-3 -26 0
-3 -27 0
-3 -30 0
-3 -4 0
-3 -5 0
-3 -6 0
-3 -8 0
-3 -9 0
-30 -10 0
-30 -11 0
-30 -12 0
-30 -15 0
-30 -16 0
-30 -17 0
-30 -18 0
-30 -21 0
-30 -22 0
-30 -23 0
-30 -24 0
-30 -25 0
-30 -26 0
-30 -27 0
-30 -28 0
-30 -29 0
-30 -3 0
-30 -4 0
-30 -5 0
-30 -6 0
-30 -9 0
-4 -1 0
-4 -10 0
-4 -12 0
-4 -13 0
-4 -16 0
-4 -18 0
-4 -19 0
-4 -2 0
-4 -22 0
-4 -24 0
-4 -25 0
-4 -28 0
-4 -3 0
-4 -30 0
-4 -5 0
-4 -6 0
-4 -7 0
-5 -1 0
-5 -11 0
-5 -12 0
-5 -14 0
-5 -17 0
-5 -18 0
-5 -2 0
-5 -20 0
-5 -23 0
-5 -24 0
-5 -26 0
-5 -29 0
-5 -3 0
-5 -30 0
-5 -4 0
-5 -6 0
-5 -8 0
-6 -1 0
-6 -10 0
-6 -11 0
-6 -12 0
-6 -15 0
-6 -16 0
-6 -17 0
-6 -18 0
-6 -2 0
-6 -21 0
-6 -22 0
-6 -23 0
-6 -24 0
-6 -27 0
-6 -28 0
-6 -29 0
-6 -3 0
-6 -30 0
-6 -4 0
-6 -5 0
-6 -9 0
-7 -1 0
-7 -10 0
-7 -11 0
-7 -12 0
-7 -13 0
-7 -16 0
-7 -19 0
-7 -22 0
-7 -25 0
-7 -28 0
-7 -4 0
-7 -8 0
-7 -9 0
-8 -10 0
-8 -11 0
-8 -12 0
-8 -14 0
-8 -15 0
-8 -17 0
-8 -2 0
-8 -20 0
-8 -21 0
-8 -23 0
-8 -26 0
-8 -27 0
-8 -29 0
-8 -3 0
-8 -5 0
-8 -7 0
-8 -9 0
-9 -10 0
-9 -11 0
-9 -12 0
-9 -14 0
-9 -15 0
-9 -18 0
-9 -2 0
-9 -20 0
-9 -21 0
-9 -24 0
-9 -26 0
-9 -27 0
-9 -3 0
-9 -30 0
-9 -6 0
-9 -7 0
-9 -8 0
1 2 3 4 5 6 0
13 14 15 16 17 18 0
7 8 9 10 11 12 0
